(set-logic QF_NRA)
(set-info :source |Benchmarks generated from hycomp (https://es-static.fbk.eu/tools/hycomp/). BMC instances of non-linear hybrid automata taken from: Alessandro Cimatti, Sergio Mover, Stefano Tonetta, A quantifier-free SMT encoding of non-linear hybrid automata, FMCAD 2012 and Alessandro Cimatti, Sergio Mover, Stefano Tonetta, Quantier-free encoding of invariants for Hybrid Systems, Formal Methods in System Design. This instance solves a BMC problem of depth 2 and uses the quantifier free encoding encoding. Contacts: Sergio Mover (mover@fbk.eu), Stefano Tonetta (tonettas@fbk.eu), Alessandro Cimatti (cimatti@fbk.eu).|)
(set-info :smt-lib-version 2.0)
(set-info :category "industrial")
(set-info :status unsat)
;; MathSAT API call trace
;; generated on Mon Mar 19 10:36:35 2012
(declare-fun b.speed_y__AT2 () Real)
(declare-fun b.y__AT0 () Real)
(declare-fun b.counter.0__AT0 () Bool)
(declare-fun b.EVENT.0__AT0 () Bool)
(declare-fun b.counter.3__AT0 () Bool)
(declare-fun b.counter.1__AT0 () Bool)
(declare-fun b.event_is_timed__AT1 () Bool)
(declare-fun b.bool_atom__AT1 () Bool)
(declare-fun b.g__AT0 () Real)
(declare-fun b.speed_y__AT0 () Real)
(declare-fun b.x__AT1 () Real)
(declare-fun b.y__AT1 () Real)
(declare-fun b.counter.2__AT0 () Bool)
(declare-fun b.counter.0__AT1 () Bool)
(declare-fun b.counter.1__AT1 () Bool)
(declare-fun b.counter.2__AT1 () Bool)
(declare-fun b.event_is_timed__AT2 () Bool)
(declare-fun b.event_is_timed__AT0 () Bool)
(declare-fun b.counter.3__AT1 () Bool)
(declare-fun b.bool_atom__AT0 () Bool)
(declare-fun b.x__AT0 () Real)
(declare-fun b.time__AT2 () Real)
(declare-fun b.counter.0__AT2 () Bool)
(declare-fun b.y__AT2 () Real)
(declare-fun b.delta__AT1 () Real)
(declare-fun b.delta__AT2 () Real)
(declare-fun b.speed_y__AT1 () Real)
(declare-fun b.counter.1__AT2 () Bool)
(declare-fun b.bool_atom__AT2 () Bool)
(declare-fun b.time__AT1 () Real)
(declare-fun b.EVENT.0__AT1 () Bool)
(declare-fun b.counter.2__AT2 () Bool)
(declare-fun b.time__AT0 () Real)
(declare-fun b.x__AT2 () Real)
(declare-fun b.EVENT.1__AT1 () Bool)
(declare-fun b.counter.3__AT2 () Bool)
(declare-fun b.EVENT.0__AT2 () Bool)
(declare-fun b.delta__AT0 () Real)
(declare-fun b.EVENT.1__AT2 () Bool)
(declare-fun b.EVENT.1__AT0 () Bool)
(assert (let ((.def_72 (* (- 1.0) b.g__AT0)))
(let ((.def_75 (* (/ 1 2) .def_72)))
(let ((.def_88 (* 2.0 .def_75)))
(let ((.def_94 (* (- 1.0) .def_88)))
(let ((.def_465 (* .def_94 b.delta__AT2)))
(let ((.def_466 (<= b.speed_y__AT2 .def_465)))
(let ((.def_464 (<= b.speed_y__AT2 0.0 )))
(let ((.def_467 (and .def_464 .def_466)))
(let ((.def_460 (* .def_88 b.delta__AT2)))
(let ((.def_461 (+ b.speed_y__AT2 .def_460)))
(let ((.def_462 (<= 0.0 .def_461)))
(let ((.def_459 (<= 0.0 b.speed_y__AT2)))
(let ((.def_463 (and .def_459 .def_462)))
(let ((.def_468 (or .def_463 .def_467)))
(let ((.def_450 (* b.speed_y__AT2 b.delta__AT2)))
(let ((.def_448 (* b.delta__AT2 b.delta__AT2)))
(let ((.def_449 (* .def_75 .def_448)))
(let ((.def_451 (+ .def_449 .def_450)))
(let ((.def_432 (* (- 1.0) b.x__AT2)))
(let ((.def_433 (* b.x__AT2 .def_432)))
(let ((.def_452 (* (- 1.0) .def_433)))
(let ((.def_455 (+ .def_452 .def_451)))
(let ((.def_456 (+ b.y__AT2 .def_455)))
(let ((.def_457 (<= 0.0 .def_456)))
(let ((.def_434 (<= .def_433 b.y__AT2)))
(let ((.def_458 (and .def_434 .def_457)))
(let ((.def_469 (and .def_458 .def_468)))
(let ((.def_64 (<= b.g__AT0 10.0 )))
(let ((.def_63 (<= 8.0 b.g__AT0)))
(let ((.def_65 (and .def_63 .def_64)))
(let ((.def_470 (and .def_65 .def_469)))
(let ((.def_170 (not b.counter.0__AT1)))
(let ((.def_160 (not b.counter.1__AT1)))
(let ((.def_439 (and .def_160 .def_170)))
(let ((.def_443 (or b.counter.3__AT1 .def_439)))
(let ((.def_440 (or b.counter.2__AT1 .def_439)))
(let ((.def_165 (not b.counter.2__AT1)))
(let ((.def_438 (or .def_160 .def_165)))
(let ((.def_441 (and .def_438 .def_440)))
(let ((.def_179 (not b.counter.3__AT1)))
(let ((.def_442 (or .def_179 .def_441)))
(let ((.def_444 (and .def_442 .def_443)))
(let ((.def_435 (and .def_65 .def_434)))
(let ((.def_429 (not b.EVENT.0__AT2)))
(let ((.def_427 (not b.EVENT.1__AT2)))
(let ((.def_430 (or .def_427 .def_429)))
(let ((.def_9 (not b.counter.0__AT2)))
(let ((.def_6 (not b.counter.1__AT2)))
(let ((.def_420 (or .def_6 .def_9)))
(let ((.def_424 (or b.counter.3__AT2 .def_420)))
(let ((.def_421 (or b.counter.2__AT2 .def_420)))
(let ((.def_4 (not b.counter.2__AT2)))
(let ((.def_419 (or .def_4 .def_9)))
(let ((.def_422 (and .def_419 .def_421)))
(let ((.def_14 (not b.counter.3__AT2)))
(let ((.def_423 (or .def_14 .def_422)))
(let ((.def_425 (and .def_423 .def_424)))
(let ((.def_431 (and .def_425 .def_430)))
(let ((.def_436 (and .def_431 .def_435)))
(let ((.def_414 (<= 0.0 b.delta__AT1)))
(let ((.def_249 (not b.EVENT.0__AT1)))
(let ((.def_247 (not b.EVENT.1__AT1)))
(let ((.def_291 (and .def_247 .def_249)))
(let ((.def_293 (not .def_291)))
(let ((.def_415 (or .def_293 .def_414)))
(let ((.def_416 (or b.EVENT.1__AT1 .def_415)))
(let ((.def_328 (= b.bool_atom__AT1 b.bool_atom__AT2)))
(let ((.def_324 (= b.counter.0__AT2 b.counter.0__AT1)))
(let ((.def_322 (= b.counter.1__AT2 b.counter.1__AT1)))
(let ((.def_320 (= b.counter.2__AT2 b.counter.2__AT1)))
(let ((.def_319 (= b.counter.3__AT2 b.counter.3__AT1)))
(let ((.def_321 (and .def_319 .def_320)))
(let ((.def_323 (and .def_321 .def_322)))
(let ((.def_325 (and .def_323 .def_324)))
(let ((.def_410 (and .def_325 .def_328)))
(let ((.def_411 (or .def_293 .def_410)))
(let ((.def_412 (or b.EVENT.1__AT1 .def_411)))
(let ((.def_399 (* .def_72 b.delta__AT1)))
(let ((.def_400 (* (- 1.0) b.speed_y__AT2)))
(let ((.def_403 (+ .def_400 .def_399)))
(let ((.def_404 (+ b.speed_y__AT1 .def_403)))
(let ((.def_405 (= .def_404 0.0 )))
(let ((.def_390 (* (- 1.0) b.y__AT2)))
(let ((.def_269 (* b.speed_y__AT1 b.delta__AT1)))
(let ((.def_394 (+ .def_269 .def_390)))
(let ((.def_267 (* b.delta__AT1 b.delta__AT1)))
(let ((.def_268 (* .def_75 .def_267)))
(let ((.def_395 (+ .def_268 .def_394)))
(let ((.def_396 (+ b.y__AT1 .def_395)))
(let ((.def_397 (= .def_396 0.0 )))
(let ((.def_311 (= b.x__AT1 b.x__AT2)))
(let ((.def_398 (and .def_311 .def_397)))
(let ((.def_406 (and .def_398 .def_405)))
(let ((.def_407 (or .def_293 .def_406)))
(let ((.def_314 (= b.y__AT1 b.y__AT2)))
(let ((.def_385 (and .def_311 .def_314)))
(let ((.def_317 (= b.speed_y__AT1 b.speed_y__AT2)))
(let ((.def_386 (and .def_317 .def_385)))
(let ((.def_382 (= b.delta__AT1 0.0 )))
(let ((.def_383 (and .def_291 .def_382)))
(let ((.def_384 (not .def_383)))
(let ((.def_387 (or .def_384 .def_386)))
(let ((.def_388 (or b.EVENT.1__AT1 .def_387)))
(let ((.def_375 (and .def_317 .def_325)))
(let ((.def_376 (or b.bool_atom__AT1 .def_375)))
(let ((.def_351 (or .def_9 b.counter.0__AT1)))
(let ((.def_350 (or b.counter.0__AT2 .def_170)))
(let ((.def_352 (and .def_350 .def_351)))
(let ((.def_353 (and .def_6 .def_352)))
(let ((.def_354 (or b.counter.1__AT1 .def_353)))
(let ((.def_349 (or b.counter.1__AT2 .def_160)))
(let ((.def_355 (and .def_349 .def_354)))
(let ((.def_366 (and .def_4 .def_355)))
(let ((.def_367 (or b.counter.2__AT1 .def_366)))
(let ((.def_361 (and .def_6 .def_170)))
(let ((.def_362 (or b.counter.1__AT1 .def_361)))
(let ((.def_363 (and .def_349 .def_362)))
(let ((.def_364 (and b.counter.2__AT2 .def_363)))
(let ((.def_365 (or .def_165 .def_364)))
(let ((.def_368 (and .def_365 .def_367)))
(let ((.def_369 (and b.counter.3__AT2 .def_368)))
(let ((.def_370 (or b.counter.3__AT1 .def_369)))
(let ((.def_356 (and b.counter.2__AT2 .def_355)))
(let ((.def_357 (or b.counter.2__AT1 .def_356)))
(let ((.def_345 (or b.counter.1__AT2 b.counter.1__AT1)))
(let ((.def_343 (and .def_6 b.counter.0__AT2)))
(let ((.def_344 (or .def_160 .def_343)))
(let ((.def_346 (and .def_344 .def_345)))
(let ((.def_347 (and .def_4 .def_346)))
(let ((.def_348 (or .def_165 .def_347)))
(let ((.def_358 (and .def_348 .def_357)))
(let ((.def_359 (and .def_14 .def_358)))
(let ((.def_360 (or .def_179 .def_359)))
(let ((.def_371 (and .def_360 .def_370)))
(let ((.def_340 (* b.speed_y__AT2 b.speed_y__AT2)))
(let ((.def_156 (* b.speed_y__AT1 b.speed_y__AT1)))
(let ((.def_341 (= .def_156 .def_340)))
(let ((.def_338 (+ b.speed_y__AT1 b.speed_y__AT2)))
(let ((.def_339 (= .def_338 0.0 )))
(let ((.def_342 (and .def_339 .def_341)))
(let ((.def_372 (and .def_342 .def_371)))
(let ((.def_337 (not b.bool_atom__AT1)))
(let ((.def_373 (or .def_337 .def_372)))
(let ((.def_278 (<= 0.0 b.speed_y__AT1)))
(let ((.def_334 (not .def_278)))
(let ((.def_252 (* (- 1.0) b.x__AT1)))
(let ((.def_253 (* b.x__AT1 .def_252)))
(let ((.def_333 (= b.y__AT1 .def_253)))
(let ((.def_335 (and .def_333 .def_334)))
(let ((.def_336 (= b.bool_atom__AT1 .def_335)))
(let ((.def_374 (and .def_336 .def_373)))
(let ((.def_377 (and .def_374 .def_376)))
(let ((.def_378 (and .def_311 .def_377)))
(let ((.def_379 (and .def_314 .def_378)))
(let ((.def_380 (or .def_291 .def_379)))
(let ((.def_381 (or b.EVENT.1__AT1 .def_380)))
(let ((.def_389 (and .def_381 .def_388)))
(let ((.def_408 (and .def_389 .def_407)))
(let ((.def_298 (= b.time__AT1 b.time__AT2)))
(let ((.def_312 (and .def_298 .def_311)))
(let ((.def_315 (and .def_312 .def_314)))
(let ((.def_318 (and .def_315 .def_317)))
(let ((.def_326 (and .def_318 .def_325)))
(let ((.def_329 (and .def_326 .def_328)))
(let ((.def_330 (or .def_247 .def_329)))
(let ((.def_301 (* (- 1.0) b.time__AT2)))
(let ((.def_304 (+ b.delta__AT1 .def_301)))
(let ((.def_305 (+ b.time__AT1 .def_304)))
(let ((.def_306 (= .def_305 0.0 )))
(let ((.def_307 (or .def_293 .def_306)))
(let ((.def_308 (or b.EVENT.1__AT1 .def_307)))
(let ((.def_299 (or .def_291 .def_298)))
(let ((.def_300 (or b.EVENT.1__AT1 .def_299)))
(let ((.def_309 (and .def_300 .def_308)))
(let ((.def_331 (and .def_309 .def_330)))
(let ((.def_295 (= .def_293 b.event_is_timed__AT2)))
(let ((.def_292 (= b.event_is_timed__AT1 .def_291)))
(let ((.def_296 (and .def_292 .def_295)))
(let ((.def_332 (and .def_296 .def_331)))
(let ((.def_409 (and .def_332 .def_408)))
(let ((.def_413 (and .def_409 .def_412)))
(let ((.def_417 (and .def_413 .def_416)))
(let ((.def_418 (and .def_247 .def_417)))
(let ((.def_437 (and .def_418 .def_436)))
(let ((.def_445 (and .def_437 .def_444)))
(let ((.def_284 (* .def_94 b.delta__AT1)))
(let ((.def_285 (<= b.speed_y__AT1 .def_284)))
(let ((.def_283 (<= b.speed_y__AT1 0.0 )))
(let ((.def_286 (and .def_283 .def_285)))
(let ((.def_279 (* .def_88 b.delta__AT1)))
(let ((.def_280 (+ b.speed_y__AT1 .def_279)))
(let ((.def_281 (<= 0.0 .def_280)))
(let ((.def_282 (and .def_278 .def_281)))
(let ((.def_287 (or .def_282 .def_286)))
(let ((.def_270 (+ .def_268 .def_269)))
(let ((.def_271 (* (- 1.0) .def_253)))
(let ((.def_274 (+ .def_271 .def_270)))
(let ((.def_275 (+ b.y__AT1 .def_274)))
(let ((.def_276 (<= 0.0 .def_275)))
(let ((.def_254 (<= .def_253 b.y__AT1)))
(let ((.def_277 (and .def_254 .def_276)))
(let ((.def_288 (and .def_277 .def_287)))
(let ((.def_289 (and .def_65 .def_288)))
(let ((.def_34 (not b.counter.0__AT0)))
(let ((.def_32 (not b.counter.1__AT0)))
(let ((.def_35 (and .def_32 .def_34)))
(let ((.def_262 (or .def_35 b.counter.3__AT0)))
(let ((.def_259 (or .def_35 b.counter.2__AT0)))
(let ((.def_37 (not b.counter.2__AT0)))
(let ((.def_258 (or .def_32 .def_37)))
(let ((.def_260 (and .def_258 .def_259)))
(let ((.def_40 (not b.counter.3__AT0)))
(let ((.def_261 (or .def_40 .def_260)))
(let ((.def_263 (and .def_261 .def_262)))
(let ((.def_255 (and .def_65 .def_254)))
(let ((.def_250 (or .def_247 .def_249)))
(let ((.def_240 (or .def_160 .def_170)))
(let ((.def_244 (or b.counter.3__AT1 .def_240)))
(let ((.def_241 (or b.counter.2__AT1 .def_240)))
(let ((.def_239 (or .def_165 .def_170)))
(let ((.def_242 (and .def_239 .def_241)))
(let ((.def_243 (or .def_179 .def_242)))
(let ((.def_245 (and .def_243 .def_244)))
(let ((.def_251 (and .def_245 .def_250)))
(let ((.def_256 (and .def_251 .def_255)))
(let ((.def_234 (<= 0.0 b.delta__AT0)))
(let ((.def_53 (not b.EVENT.0__AT0)))
(let ((.def_51 (not b.EVENT.1__AT0)))
(let ((.def_102 (and .def_51 .def_53)))
(let ((.def_104 (not .def_102)))
(let ((.def_235 (or .def_104 .def_234)))
(let ((.def_236 (or b.EVENT.1__AT0 .def_235)))
(let ((.def_144 (= b.bool_atom__AT0 b.bool_atom__AT1)))
(let ((.def_139 (= b.counter.0__AT0 b.counter.0__AT1)))
(let ((.def_136 (= b.counter.1__AT0 b.counter.1__AT1)))
(let ((.def_133 (= b.counter.2__AT0 b.counter.2__AT1)))
(let ((.def_131 (= b.counter.3__AT0 b.counter.3__AT1)))
(let ((.def_134 (and .def_131 .def_133)))
(let ((.def_137 (and .def_134 .def_136)))
(let ((.def_140 (and .def_137 .def_139)))
(let ((.def_230 (and .def_140 .def_144)))
(let ((.def_231 (or .def_104 .def_230)))
(let ((.def_232 (or b.EVENT.1__AT0 .def_231)))
(let ((.def_219 (* b.delta__AT0 .def_72)))
(let ((.def_220 (* (- 1.0) b.speed_y__AT1)))
(let ((.def_223 (+ .def_220 .def_219)))
(let ((.def_224 (+ b.speed_y__AT0 .def_223)))
(let ((.def_225 (= .def_224 0.0 )))
(let ((.def_211 (* (- 1.0) b.y__AT1)))
(let ((.def_78 (* b.delta__AT0 b.speed_y__AT0)))
(let ((.def_214 (+ .def_78 .def_211)))
(let ((.def_71 (* b.delta__AT0 b.delta__AT0)))
(let ((.def_76 (* .def_71 .def_75)))
(let ((.def_215 (+ .def_76 .def_214)))
(let ((.def_216 (+ b.y__AT0 .def_215)))
(let ((.def_217 (= .def_216 0.0 )))
(let ((.def_122 (= b.x__AT0 b.x__AT1)))
(let ((.def_218 (and .def_122 .def_217)))
(let ((.def_226 (and .def_218 .def_225)))
(let ((.def_227 (or .def_104 .def_226)))
(let ((.def_125 (= b.y__AT0 b.y__AT1)))
(let ((.def_206 (and .def_122 .def_125)))
(let ((.def_128 (= b.speed_y__AT0 b.speed_y__AT1)))
(let ((.def_207 (and .def_128 .def_206)))
(let ((.def_203 (= b.delta__AT0 0.0 )))
(let ((.def_204 (and .def_102 .def_203)))
(let ((.def_205 (not .def_204)))
(let ((.def_208 (or .def_205 .def_207)))
(let ((.def_209 (or b.EVENT.1__AT0 .def_208)))
(let ((.def_196 (and .def_128 .def_140)))
(let ((.def_197 (or b.bool_atom__AT0 .def_196)))
(let ((.def_171 (or b.counter.0__AT0 .def_170)))
(let ((.def_169 (or .def_34 b.counter.0__AT1)))
(let ((.def_172 (and .def_169 .def_171)))
(let ((.def_173 (and .def_160 .def_172)))
(let ((.def_174 (or b.counter.1__AT0 .def_173)))
(let ((.def_168 (or .def_32 b.counter.1__AT1)))
(let ((.def_175 (and .def_168 .def_174)))
(let ((.def_187 (and .def_165 .def_175)))
(let ((.def_188 (or b.counter.2__AT0 .def_187)))
(let ((.def_182 (and .def_34 .def_160)))
(let ((.def_183 (or b.counter.1__AT0 .def_182)))
(let ((.def_184 (and .def_168 .def_183)))
(let ((.def_185 (and b.counter.2__AT1 .def_184)))
(let ((.def_186 (or .def_37 .def_185)))
(let ((.def_189 (and .def_186 .def_188)))
(let ((.def_190 (and b.counter.3__AT1 .def_189)))
(let ((.def_191 (or b.counter.3__AT0 .def_190)))
(let ((.def_176 (and b.counter.2__AT1 .def_175)))
(let ((.def_177 (or b.counter.2__AT0 .def_176)))
(let ((.def_163 (or b.counter.1__AT0 b.counter.1__AT1)))
(let ((.def_161 (and b.counter.0__AT1 .def_160)))
(let ((.def_162 (or .def_32 .def_161)))
(let ((.def_164 (and .def_162 .def_163)))
(let ((.def_166 (and .def_164 .def_165)))
(let ((.def_167 (or .def_37 .def_166)))
(let ((.def_178 (and .def_167 .def_177)))
(let ((.def_180 (and .def_178 .def_179)))
(let ((.def_181 (or .def_40 .def_180)))
(let ((.def_192 (and .def_181 .def_191)))
(let ((.def_157 (* b.speed_y__AT0 b.speed_y__AT0)))
(let ((.def_158 (= .def_156 .def_157)))
(let ((.def_154 (+ b.speed_y__AT0 b.speed_y__AT1)))
(let ((.def_155 (= .def_154 0.0 )))
(let ((.def_159 (and .def_155 .def_158)))
(let ((.def_193 (and .def_159 .def_192)))
(let ((.def_153 (not b.bool_atom__AT0)))
(let ((.def_194 (or .def_153 .def_193)))
(let ((.def_87 (<= 0.0 b.speed_y__AT0)))
(let ((.def_150 (not .def_87)))
(let ((.def_58 (* (- 1.0) b.x__AT0)))
(let ((.def_59 (* b.x__AT0 .def_58)))
(let ((.def_149 (= b.y__AT0 .def_59)))
(let ((.def_151 (and .def_149 .def_150)))
(let ((.def_152 (= b.bool_atom__AT0 .def_151)))
(let ((.def_195 (and .def_152 .def_194)))
(let ((.def_198 (and .def_195 .def_197)))
(let ((.def_199 (and .def_122 .def_198)))
(let ((.def_200 (and .def_125 .def_199)))
(let ((.def_201 (or .def_102 .def_200)))
(let ((.def_202 (or b.EVENT.1__AT0 .def_201)))
(let ((.def_210 (and .def_202 .def_209)))
(let ((.def_228 (and .def_210 .def_227)))
(let ((.def_109 (= b.time__AT0 b.time__AT1)))
(let ((.def_123 (and .def_109 .def_122)))
(let ((.def_126 (and .def_123 .def_125)))
(let ((.def_129 (and .def_126 .def_128)))
(let ((.def_141 (and .def_129 .def_140)))
(let ((.def_145 (and .def_141 .def_144)))
(let ((.def_146 (or .def_51 .def_145)))
(let ((.def_112 (* (- 1.0) b.time__AT1)))
(let ((.def_115 (+ b.delta__AT0 .def_112)))
(let ((.def_116 (+ b.time__AT0 .def_115)))
(let ((.def_117 (= .def_116 0.0 )))
(let ((.def_118 (or .def_104 .def_117)))
(let ((.def_119 (or b.EVENT.1__AT0 .def_118)))
(let ((.def_110 (or .def_102 .def_109)))
(let ((.def_111 (or b.EVENT.1__AT0 .def_110)))
(let ((.def_120 (and .def_111 .def_119)))
(let ((.def_147 (and .def_120 .def_146)))
(let ((.def_106 (= .def_104 b.event_is_timed__AT1)))
(let ((.def_103 (= b.event_is_timed__AT0 .def_102)))
(let ((.def_107 (and .def_103 .def_106)))
(let ((.def_148 (and .def_107 .def_147)))
(let ((.def_229 (and .def_148 .def_228)))
(let ((.def_233 (and .def_229 .def_232)))
(let ((.def_237 (and .def_233 .def_236)))
(let ((.def_238 (and .def_51 .def_237)))
(let ((.def_257 (and .def_238 .def_256)))
(let ((.def_264 (and .def_257 .def_263)))
(let ((.def_95 (* b.delta__AT0 .def_94)))
(let ((.def_96 (<= b.speed_y__AT0 .def_95)))
(let ((.def_93 (<= b.speed_y__AT0 0.0 )))
(let ((.def_97 (and .def_93 .def_96)))
(let ((.def_89 (* b.delta__AT0 .def_88)))
(let ((.def_90 (+ b.speed_y__AT0 .def_89)))
(let ((.def_91 (<= 0.0 .def_90)))
(let ((.def_92 (and .def_87 .def_91)))
(let ((.def_98 (or .def_92 .def_97)))
(let ((.def_79 (+ .def_76 .def_78)))
(let ((.def_80 (* (- 1.0) .def_59)))
(let ((.def_83 (+ .def_80 .def_79)))
(let ((.def_84 (+ b.y__AT0 .def_83)))
(let ((.def_85 (<= 0.0 .def_84)))
(let ((.def_60 (<= .def_59 b.y__AT0)))
(let ((.def_86 (and .def_60 .def_85)))
(let ((.def_99 (and .def_86 .def_98)))
(let ((.def_100 (and .def_65 .def_99)))
(let ((.def_66 (and .def_60 .def_65)))
(let ((.def_54 (or .def_51 .def_53)))
(let ((.def_44 (or .def_32 .def_34)))
(let ((.def_48 (or b.counter.3__AT0 .def_44)))
(let ((.def_45 (or b.counter.2__AT0 .def_44)))
(let ((.def_43 (or .def_34 .def_37)))
(let ((.def_46 (and .def_43 .def_45)))
(let ((.def_47 (or .def_40 .def_46)))
(let ((.def_49 (and .def_47 .def_48)))
(let ((.def_55 (and .def_49 .def_54)))
(let ((.def_67 (and .def_55 .def_66)))
(let ((.def_38 (and .def_35 .def_37)))
(let ((.def_41 (and .def_38 .def_40)))
(let ((.def_29 (= b.y__AT0 10.0 )))
(let ((.def_25 (= b.x__AT0 0.0 )))
(let ((.def_21 (= b.time__AT0 0.0 )))
(let ((.def_23 (and .def_21 b.event_is_timed__AT0)))
(let ((.def_26 (and .def_23 .def_25)))
(let ((.def_30 (and .def_26 .def_29)))
(let ((.def_42 (and .def_30 .def_41)))
(let ((.def_68 (and .def_42 .def_67)))
(let ((.def_10 (and .def_6 .def_9)))
(let ((.def_16 (or .def_10 b.counter.3__AT2)))
(let ((.def_11 (or b.counter.2__AT2 .def_10)))
(let ((.def_7 (or .def_4 .def_6)))
(let ((.def_12 (and .def_7 .def_11)))
(let ((.def_15 (or .def_12 .def_14)))
(let ((.def_17 (and .def_15 .def_16)))
(let ((.def_18 (not .def_17)))
(let ((.def_69 (and .def_18 .def_68)))
(let ((.def_101 (and .def_69 .def_100)))
(let ((.def_265 (and .def_101 .def_264)))
(let ((.def_290 (and .def_265 .def_289)))
(let ((.def_446 (and .def_290 .def_445)))
(let ((.def_471 (and .def_446 .def_470)))
.def_471))))))))))))))))))))))))))))))))))))))))))))))))))))))))))))))))))))))))))))))))))))))))))))))))))))))))))))))))))))))))))))))))))))))))))))))))))))))))))))))))))))))))))))))))))))))))))))))))))))))))))))))))))))))))))))))))))))))))))))))))))))))))))))))))))))))))))))))))))))))))))))))))))))))))))))))))))))))))))))))))))))))))))))))))))))))))))))))))))))))))))))))))))))))))))))))))))))))))))))))))))))
(check-sat)
(exit)
